*SPEF "ieee 1481-1999"
*DESIGN "tt_um_josue_olivos_6bit_counter"
*DATE "19:26:33 Monday June 15, 2026"
*VENDOR "The OpenROAD Project"
*PROGRAM "OpenROAD"
*VERSION "edf00dff99f6c40d67a30c0e22a8191c5d2ed9d6"
*DESIGN_FLOW "NAME_SCOPE LOCAL" "PIN_CAP NONE"
*DIVIDER /
*DELIMITER :
*BUS_DELIMITER []
*T_UNIT 1 NS
*C_UNIT 1 PF
*R_UNIT 1 OHM
*L_UNIT 1 HENRY

*NAME_MAP
*3 clk
*4 ena
*5 rst_n
*6 ui_in[0]
*7 ui_in[1]
*8 ui_in[2]
*9 ui_in[3]
*10 ui_in[4]
*11 ui_in[5]
*12 ui_in[6]
*13 ui_in[7]
*14 uio_in[0]
*15 uio_in[1]
*16 uio_in[2]
*17 uio_in[3]
*18 uio_in[4]
*19 uio_in[5]
*20 uio_in[6]
*21 uio_in[7]
*22 net2
*23 net3
*24 net4
*25 net5
*26 net6
*27 net7
*28 net8
*29 net9
*30 net10
*31 net11
*32 net12
*33 net13
*34 net14
*35 net15
*36 net16
*37 net17
*38 uo_out[0]
*39 uo_out[1]
*40 uo_out[2]
*41 uo_out[3]
*42 uo_out[4]
*43 uo_out[5]
*44 net18
*45 net19
*46 _00_
*47 _01_
*48 _02_
*49 _03_
*50 _04_
*51 _05_
*52 _06_
*53 _07_
*54 _08_
*55 _09_
*56 _10_
*57 _11_
*58 clknet_0_clk
*59 clknet_1_0__leaf_clk
*60 clknet_1_1__leaf_clk
*61 net1
*62 FILLER_0_109
*63 FILLER_0_113
*64 FILLER_0_125
*65 FILLER_0_137
*66 FILLER_0_141
*67 FILLER_0_15
*68 FILLER_0_153
*69 FILLER_0_165
*70 FILLER_0_169
*71 FILLER_0_181
*72 FILLER_0_193
*73 FILLER_0_197
*74 FILLER_0_209
*75 FILLER_0_221
*76 FILLER_0_225
*77 FILLER_0_237
*78 FILLER_0_249
*79 FILLER_0_253
*80 FILLER_0_265
*81 FILLER_0_27
*82 FILLER_0_277
*83 FILLER_0_281
*84 FILLER_0_29
*85 FILLER_0_293
*86 FILLER_0_3
*87 FILLER_0_305
*88 FILLER_0_309
*89 FILLER_0_321
*90 FILLER_0_333
*91 FILLER_0_41
*92 FILLER_0_53
*93 FILLER_0_57
*94 FILLER_0_69
*95 FILLER_0_81
*96 FILLER_0_85
*97 FILLER_0_97
*98 FILLER_10_109
*99 FILLER_10_121
*100 FILLER_10_133
*101 FILLER_10_139
*102 FILLER_10_141
*103 FILLER_10_15
*104 FILLER_10_153
*105 FILLER_10_165
*106 FILLER_10_177
*107 FILLER_10_189
*108 FILLER_10_195
*109 FILLER_10_197
*110 FILLER_10_209
*111 FILLER_10_221
*112 FILLER_10_233
*113 FILLER_10_245
*114 FILLER_10_251
*115 FILLER_10_253
*116 FILLER_10_265
*117 FILLER_10_27
*118 FILLER_10_277
*119 FILLER_10_289
*120 FILLER_10_29
*121 FILLER_10_3
*122 FILLER_10_301
*123 FILLER_10_307
*124 FILLER_10_309
*125 FILLER_10_321
*126 FILLER_10_333
*127 FILLER_10_41
*128 FILLER_10_53
*129 FILLER_10_65
*130 FILLER_10_77
*131 FILLER_10_83
*132 FILLER_10_85
*133 FILLER_10_97
*134 FILLER_11_105
*135 FILLER_11_111
*136 FILLER_11_113
*137 FILLER_11_125
*138 FILLER_11_137
*139 FILLER_11_149
*140 FILLER_11_15
*141 FILLER_11_161
*142 FILLER_11_167
*143 FILLER_11_169
*144 FILLER_11_181
*145 FILLER_11_193
*146 FILLER_11_205
*147 FILLER_11_217
*148 FILLER_11_223
*149 FILLER_11_225
*150 FILLER_11_237
*151 FILLER_11_249
*152 FILLER_11_261
*153 FILLER_11_27
*154 FILLER_11_273
*155 FILLER_11_279
*156 FILLER_11_281
*157 FILLER_11_293
*158 FILLER_11_3
*159 FILLER_11_305
*160 FILLER_11_317
*161 FILLER_11_329
*162 FILLER_11_39
*163 FILLER_11_51
*164 FILLER_11_55
*165 FILLER_11_57
*166 FILLER_11_69
*167 FILLER_11_81
*168 FILLER_11_93
*169 FILLER_12_109
*170 FILLER_12_121
*171 FILLER_12_133
*172 FILLER_12_139
*173 FILLER_12_141
*174 FILLER_12_15
*175 FILLER_12_153
*176 FILLER_12_165
*177 FILLER_12_177
*178 FILLER_12_189
*179 FILLER_12_195
*180 FILLER_12_197
*181 FILLER_12_209
*182 FILLER_12_221
*183 FILLER_12_233
*184 FILLER_12_245
*185 FILLER_12_251
*186 FILLER_12_253
*187 FILLER_12_265
*188 FILLER_12_27
*189 FILLER_12_277
*190 FILLER_12_289
*191 FILLER_12_29
*192 FILLER_12_3
*193 FILLER_12_301
*194 FILLER_12_307
*195 FILLER_12_309
*196 FILLER_12_321
*197 FILLER_12_333
*198 FILLER_12_41
*199 FILLER_12_53
*200 FILLER_12_65
*201 FILLER_12_77
*202 FILLER_12_83
*203 FILLER_12_85
*204 FILLER_12_97
*205 FILLER_13_105
*206 FILLER_13_111
*207 FILLER_13_113
*208 FILLER_13_125
*209 FILLER_13_137
*210 FILLER_13_149
*211 FILLER_13_15
*212 FILLER_13_161
*213 FILLER_13_167
*214 FILLER_13_169
*215 FILLER_13_181
*216 FILLER_13_193
*217 FILLER_13_205
*218 FILLER_13_217
*219 FILLER_13_223
*220 FILLER_13_225
*221 FILLER_13_237
*222 FILLER_13_249
*223 FILLER_13_261
*224 FILLER_13_27
*225 FILLER_13_273
*226 FILLER_13_279
*227 FILLER_13_281
*228 FILLER_13_293
*229 FILLER_13_3
*230 FILLER_13_305
*231 FILLER_13_317
*232 FILLER_13_329
*233 FILLER_13_39
*234 FILLER_13_51
*235 FILLER_13_55
*236 FILLER_13_57
*237 FILLER_13_69
*238 FILLER_13_81
*239 FILLER_13_93
*240 FILLER_14_109
*241 FILLER_14_121
*242 FILLER_14_133
*243 FILLER_14_139
*244 FILLER_14_141
*245 FILLER_14_15
*246 FILLER_14_153
*247 FILLER_14_165
*248 FILLER_14_177
*249 FILLER_14_189
*250 FILLER_14_195
*251 FILLER_14_197
*252 FILLER_14_209
*253 FILLER_14_221
*254 FILLER_14_233
*255 FILLER_14_245
*256 FILLER_14_251
*257 FILLER_14_253
*258 FILLER_14_265
*259 FILLER_14_27
*260 FILLER_14_277
*261 FILLER_14_289
*262 FILLER_14_29
*263 FILLER_14_3
*264 FILLER_14_301
*265 FILLER_14_307
*266 FILLER_14_309
*267 FILLER_14_321
*268 FILLER_14_333
*269 FILLER_14_41
*270 FILLER_14_53
*271 FILLER_14_65
*272 FILLER_14_77
*273 FILLER_14_83
*274 FILLER_14_85
*275 FILLER_14_97
*276 FILLER_15_105
*277 FILLER_15_111
*278 FILLER_15_113
*279 FILLER_15_125
*280 FILLER_15_137
*281 FILLER_15_149
*282 FILLER_15_15
*283 FILLER_15_161
*284 FILLER_15_167
*285 FILLER_15_169
*286 FILLER_15_181
*287 FILLER_15_193
*288 FILLER_15_205
*289 FILLER_15_217
*290 FILLER_15_223
*291 FILLER_15_225
*292 FILLER_15_237
*293 FILLER_15_249
*294 FILLER_15_261
*295 FILLER_15_27
*296 FILLER_15_273
*297 FILLER_15_279
*298 FILLER_15_281
*299 FILLER_15_293
*300 FILLER_15_3
*301 FILLER_15_305
*302 FILLER_15_317
*303 FILLER_15_329
*304 FILLER_15_39
*305 FILLER_15_51
*306 FILLER_15_55
*307 FILLER_15_57
*308 FILLER_15_69
*309 FILLER_15_81
*310 FILLER_15_93
*311 FILLER_16_109
*312 FILLER_16_121
*313 FILLER_16_133
*314 FILLER_16_139
*315 FILLER_16_141
*316 FILLER_16_15
*317 FILLER_16_153
*318 FILLER_16_165
*319 FILLER_16_177
*320 FILLER_16_189
*321 FILLER_16_195
*322 FILLER_16_197
*323 FILLER_16_209
*324 FILLER_16_221
*325 FILLER_16_233
*326 FILLER_16_245
*327 FILLER_16_251
*328 FILLER_16_253
*329 FILLER_16_265
*330 FILLER_16_27
*331 FILLER_16_277
*332 FILLER_16_289
*333 FILLER_16_29
*334 FILLER_16_3
*335 FILLER_16_301
*336 FILLER_16_307
*337 FILLER_16_309
*338 FILLER_16_321
*339 FILLER_16_333
*340 FILLER_16_41
*341 FILLER_16_53
*342 FILLER_16_65
*343 FILLER_16_77
*344 FILLER_16_83
*345 FILLER_16_85
*346 FILLER_16_97
*347 FILLER_17_105
*348 FILLER_17_111
*349 FILLER_17_113
*350 FILLER_17_125
*351 FILLER_17_137
*352 FILLER_17_149
*353 FILLER_17_15
*354 FILLER_17_161
*355 FILLER_17_167
*356 FILLER_17_169
*357 FILLER_17_181
*358 FILLER_17_193
*359 FILLER_17_205
*360 FILLER_17_217
*361 FILLER_17_223
*362 FILLER_17_225
*363 FILLER_17_237
*364 FILLER_17_249
*365 FILLER_17_261
*366 FILLER_17_27
*367 FILLER_17_273
*368 FILLER_17_279
*369 FILLER_17_281
*370 FILLER_17_293
*371 FILLER_17_3
*372 FILLER_17_305
*373 FILLER_17_317
*374 FILLER_17_329
*375 FILLER_17_39
*376 FILLER_17_51
*377 FILLER_17_55
*378 FILLER_17_57
*379 FILLER_17_69
*380 FILLER_17_81
*381 FILLER_17_93
*382 FILLER_18_109
*383 FILLER_18_121
*384 FILLER_18_133
*385 FILLER_18_139
*386 FILLER_18_141
*387 FILLER_18_15
*388 FILLER_18_153
*389 FILLER_18_165
*390 FILLER_18_177
*391 FILLER_18_189
*392 FILLER_18_195
*393 FILLER_18_197
*394 FILLER_18_209
*395 FILLER_18_221
*396 FILLER_18_233
*397 FILLER_18_245
*398 FILLER_18_251
*399 FILLER_18_253
*400 FILLER_18_265
*401 FILLER_18_27
*402 FILLER_18_277
*403 FILLER_18_289
*404 FILLER_18_29
*405 FILLER_18_3
*406 FILLER_18_301
*407 FILLER_18_307
*408 FILLER_18_309
*409 FILLER_18_321
*410 FILLER_18_333
*411 FILLER_18_41
*412 FILLER_18_53
*413 FILLER_18_65
*414 FILLER_18_77
*415 FILLER_18_83
*416 FILLER_18_85
*417 FILLER_18_97
*418 FILLER_19_105
*419 FILLER_19_111
*420 FILLER_19_113
*421 FILLER_19_125
*422 FILLER_19_137
*423 FILLER_19_149
*424 FILLER_19_15
*425 FILLER_19_161
*426 FILLER_19_167
*427 FILLER_19_169
*428 FILLER_19_181
*429 FILLER_19_193
*430 FILLER_19_205
*431 FILLER_19_217
*432 FILLER_19_223
*433 FILLER_19_225
*434 FILLER_19_237
*435 FILLER_19_249
*436 FILLER_19_261
*437 FILLER_19_27
*438 FILLER_19_273
*439 FILLER_19_279
*440 FILLER_19_281
*441 FILLER_19_293
*442 FILLER_19_3
*443 FILLER_19_305
*444 FILLER_19_317
*445 FILLER_19_329
*446 FILLER_19_39
*447 FILLER_19_51
*448 FILLER_19_55
*449 FILLER_19_57
*450 FILLER_19_69
*451 FILLER_19_81
*452 FILLER_19_93
*453 FILLER_1_105
*454 FILLER_1_111
*455 FILLER_1_113
*456 FILLER_1_125
*457 FILLER_1_137
*458 FILLER_1_149
*459 FILLER_1_15
*460 FILLER_1_161
*461 FILLER_1_167
*462 FILLER_1_169
*463 FILLER_1_181
*464 FILLER_1_193
*465 FILLER_1_205
*466 FILLER_1_217
*467 FILLER_1_223
*468 FILLER_1_225
*469 FILLER_1_237
*470 FILLER_1_249
*471 FILLER_1_261
*472 FILLER_1_27
*473 FILLER_1_273
*474 FILLER_1_279
*475 FILLER_1_281
*476 FILLER_1_293
*477 FILLER_1_3
*478 FILLER_1_305
*479 FILLER_1_317
*480 FILLER_1_329
*481 FILLER_1_39
*482 FILLER_1_51
*483 FILLER_1_55
*484 FILLER_1_57
*485 FILLER_1_69
*486 FILLER_1_81
*487 FILLER_1_93
*488 FILLER_20_109
*489 FILLER_20_121
*490 FILLER_20_133
*491 FILLER_20_139
*492 FILLER_20_141
*493 FILLER_20_15
*494 FILLER_20_153
*495 FILLER_20_165
*496 FILLER_20_177
*497 FILLER_20_189
*498 FILLER_20_195
*499 FILLER_20_197
*500 FILLER_20_209
*501 FILLER_20_221
*502 FILLER_20_233
*503 FILLER_20_245
*504 FILLER_20_251
*505 FILLER_20_253
*506 FILLER_20_265
*507 FILLER_20_27
*508 FILLER_20_277
*509 FILLER_20_289
*510 FILLER_20_29
*511 FILLER_20_3
*512 FILLER_20_301
*513 FILLER_20_307
*514 FILLER_20_309
*515 FILLER_20_321
*516 FILLER_20_333
*517 FILLER_20_41
*518 FILLER_20_53
*519 FILLER_20_65
*520 FILLER_20_77
*521 FILLER_20_83
*522 FILLER_20_85
*523 FILLER_20_97
*524 FILLER_21_105
*525 FILLER_21_111
*526 FILLER_21_113
*527 FILLER_21_125
*528 FILLER_21_137
*529 FILLER_21_149
*530 FILLER_21_15
*531 FILLER_21_161
*532 FILLER_21_167
*533 FILLER_21_169
*534 FILLER_21_181
*535 FILLER_21_193
*536 FILLER_21_205
*537 FILLER_21_217
*538 FILLER_21_223
*539 FILLER_21_225
*540 FILLER_21_237
*541 FILLER_21_249
*542 FILLER_21_261
*543 FILLER_21_27
*544 FILLER_21_273
*545 FILLER_21_279
*546 FILLER_21_281
*547 FILLER_21_293
*548 FILLER_21_3
*549 FILLER_21_305
*550 FILLER_21_317
*551 FILLER_21_329
*552 FILLER_21_39
*553 FILLER_21_51
*554 FILLER_21_55
*555 FILLER_21_57
*556 FILLER_21_69
*557 FILLER_21_81
*558 FILLER_21_93
*559 FILLER_22_109
*560 FILLER_22_121
*561 FILLER_22_133
*562 FILLER_22_139
*563 FILLER_22_141
*564 FILLER_22_15
*565 FILLER_22_153
*566 FILLER_22_165
*567 FILLER_22_177
*568 FILLER_22_189
*569 FILLER_22_195
*570 FILLER_22_197
*571 FILLER_22_209
*572 FILLER_22_221
*573 FILLER_22_233
*574 FILLER_22_245
*575 FILLER_22_251
*576 FILLER_22_253
*577 FILLER_22_265
*578 FILLER_22_27
*579 FILLER_22_277
*580 FILLER_22_289
*581 FILLER_22_29
*582 FILLER_22_3
*583 FILLER_22_301
*584 FILLER_22_307
*585 FILLER_22_309
*586 FILLER_22_321
*587 FILLER_22_333
*588 FILLER_22_41
*589 FILLER_22_53
*590 FILLER_22_65
*591 FILLER_22_77
*592 FILLER_22_83
*593 FILLER_22_85
*594 FILLER_22_97
*595 FILLER_23_105
*596 FILLER_23_111
*597 FILLER_23_113
*598 FILLER_23_125
*599 FILLER_23_137
*600 FILLER_23_149
*601 FILLER_23_15
*602 FILLER_23_161
*603 FILLER_23_167
*604 FILLER_23_169
*605 FILLER_23_181
*606 FILLER_23_193
*607 FILLER_23_205
*608 FILLER_23_217
*609 FILLER_23_223
*610 FILLER_23_225
*611 FILLER_23_237
*612 FILLER_23_249
*613 FILLER_23_261
*614 FILLER_23_27
*615 FILLER_23_273
*616 FILLER_23_279
*617 FILLER_23_281
*618 FILLER_23_293
*619 FILLER_23_3
*620 FILLER_23_305
*621 FILLER_23_317
*622 FILLER_23_329
*623 FILLER_23_39
*624 FILLER_23_51
*625 FILLER_23_55
*626 FILLER_23_57
*627 FILLER_23_69
*628 FILLER_23_81
*629 FILLER_23_93
*630 FILLER_24_109
*631 FILLER_24_121
*632 FILLER_24_133
*633 FILLER_24_139
*634 FILLER_24_141
*635 FILLER_24_15
*636 FILLER_24_153
*637 FILLER_24_165
*638 FILLER_24_177
*639 FILLER_24_189
*640 FILLER_24_195
*641 FILLER_24_197
*642 FILLER_24_209
*643 FILLER_24_221
*644 FILLER_24_233
*645 FILLER_24_245
*646 FILLER_24_251
*647 FILLER_24_253
*648 FILLER_24_265
*649 FILLER_24_27
*650 FILLER_24_277
*651 FILLER_24_289
*652 FILLER_24_29
*653 FILLER_24_3
*654 FILLER_24_301
*655 FILLER_24_307
*656 FILLER_24_309
*657 FILLER_24_321
*658 FILLER_24_333
*659 FILLER_24_41
*660 FILLER_24_53
*661 FILLER_24_65
*662 FILLER_24_77
*663 FILLER_24_83
*664 FILLER_24_85
*665 FILLER_24_97
*666 FILLER_25_105
*667 FILLER_25_111
*668 FILLER_25_113
*669 FILLER_25_125
*670 FILLER_25_137
*671 FILLER_25_149
*672 FILLER_25_15
*673 FILLER_25_161
*674 FILLER_25_167
*675 FILLER_25_169
*676 FILLER_25_181
*677 FILLER_25_193
*678 FILLER_25_205
*679 FILLER_25_217
*680 FILLER_25_223
*681 FILLER_25_225
*682 FILLER_25_237
*683 FILLER_25_249
*684 FILLER_25_261
*685 FILLER_25_27
*686 FILLER_25_273
*687 FILLER_25_279
*688 FILLER_25_281
*689 FILLER_25_293
*690 FILLER_25_3
*691 FILLER_25_305
*692 FILLER_25_317
*693 FILLER_25_329
*694 FILLER_25_39
*695 FILLER_25_51
*696 FILLER_25_55
*697 FILLER_25_57
*698 FILLER_25_69
*699 FILLER_25_81
*700 FILLER_25_93
*701 FILLER_26_109
*702 FILLER_26_121
*703 FILLER_26_133
*704 FILLER_26_139
*705 FILLER_26_141
*706 FILLER_26_15
*707 FILLER_26_153
*708 FILLER_26_165
*709 FILLER_26_177
*710 FILLER_26_189
*711 FILLER_26_195
*712 FILLER_26_197
*713 FILLER_26_209
*714 FILLER_26_221
*715 FILLER_26_233
*716 FILLER_26_245
*717 FILLER_26_251
*718 FILLER_26_253
*719 FILLER_26_265
*720 FILLER_26_27
*721 FILLER_26_277
*722 FILLER_26_289
*723 FILLER_26_29
*724 FILLER_26_3
*725 FILLER_26_301
*726 FILLER_26_307
*727 FILLER_26_309
*728 FILLER_26_321
*729 FILLER_26_333
*730 FILLER_26_41
*731 FILLER_26_53
*732 FILLER_26_65
*733 FILLER_26_77
*734 FILLER_26_83
*735 FILLER_26_85
*736 FILLER_26_97
*737 FILLER_27_105
*738 FILLER_27_111
*739 FILLER_27_113
*740 FILLER_27_125
*741 FILLER_27_137
*742 FILLER_27_149
*743 FILLER_27_15
*744 FILLER_27_161
*745 FILLER_27_167
*746 FILLER_27_169
*747 FILLER_27_181
*748 FILLER_27_193
*749 FILLER_27_205
*750 FILLER_27_217
*751 FILLER_27_223
*752 FILLER_27_225
*753 FILLER_27_237
*754 FILLER_27_249
*755 FILLER_27_261
*756 FILLER_27_27
*757 FILLER_27_273
*758 FILLER_27_279
*759 FILLER_27_281
*760 FILLER_27_293
*761 FILLER_27_3
*762 FILLER_27_305
*763 FILLER_27_317
*764 FILLER_27_329
*765 FILLER_27_39
*766 FILLER_27_51
*767 FILLER_27_55
*768 FILLER_27_57
*769 FILLER_27_69
*770 FILLER_27_81
*771 FILLER_27_93
*772 FILLER_28_109
*773 FILLER_28_121
*774 FILLER_28_133
*775 FILLER_28_139
*776 FILLER_28_141
*777 FILLER_28_15
*778 FILLER_28_153
*779 FILLER_28_165
*780 FILLER_28_177
*781 FILLER_28_189
*782 FILLER_28_195
*783 FILLER_28_197
*784 FILLER_28_209
*785 FILLER_28_221
*786 FILLER_28_233
*787 FILLER_28_245
*788 FILLER_28_251
*789 FILLER_28_253
*790 FILLER_28_265
*791 FILLER_28_27
*792 FILLER_28_277
*793 FILLER_28_289
*794 FILLER_28_29
*795 FILLER_28_3
*796 FILLER_28_301
*797 FILLER_28_307
*798 FILLER_28_309
*799 FILLER_28_321
*800 FILLER_28_333
*801 FILLER_28_41
*802 FILLER_28_53
*803 FILLER_28_65
*804 FILLER_28_77
*805 FILLER_28_83
*806 FILLER_28_85
*807 FILLER_28_97
*808 FILLER_29_105
*809 FILLER_29_111
*810 FILLER_29_113
*811 FILLER_29_125
*812 FILLER_29_137
*813 FILLER_29_149
*814 FILLER_29_15
*815 FILLER_29_161
*816 FILLER_29_167
*817 FILLER_29_169
*818 FILLER_29_181
*819 FILLER_29_193
*820 FILLER_29_205
*821 FILLER_29_217
*822 FILLER_29_223
*823 FILLER_29_225
*824 FILLER_29_237
*825 FILLER_29_249
*826 FILLER_29_261
*827 FILLER_29_27
*828 FILLER_29_273
*829 FILLER_29_279
*830 FILLER_29_281
*831 FILLER_29_293
*832 FILLER_29_3
*833 FILLER_29_305
*834 FILLER_29_317
*835 FILLER_29_329
*836 FILLER_29_39
*837 FILLER_29_51
*838 FILLER_29_55
*839 FILLER_29_57
*840 FILLER_29_69
*841 FILLER_29_81
*842 FILLER_29_93
*843 FILLER_2_109
*844 FILLER_2_121
*845 FILLER_2_133
*846 FILLER_2_139
*847 FILLER_2_141
*848 FILLER_2_15
*849 FILLER_2_153
*850 FILLER_2_165
*851 FILLER_2_177
*852 FILLER_2_189
*853 FILLER_2_195
*854 FILLER_2_197
*855 FILLER_2_209
*856 FILLER_2_221
*857 FILLER_2_233
*858 FILLER_2_245
*859 FILLER_2_251
*860 FILLER_2_253
*861 FILLER_2_265
*862 FILLER_2_27
*863 FILLER_2_277
*864 FILLER_2_289
*865 FILLER_2_29
*866 FILLER_2_3
*867 FILLER_2_301
*868 FILLER_2_307
*869 FILLER_2_309
*870 FILLER_2_321
*871 FILLER_2_333
*872 FILLER_2_41
*873 FILLER_2_53
*874 FILLER_2_65
*875 FILLER_2_77
*876 FILLER_2_83
*877 FILLER_2_85
*878 FILLER_2_97
*879 FILLER_30_109
*880 FILLER_30_121
*881 FILLER_30_133
*882 FILLER_30_139
*883 FILLER_30_141
*884 FILLER_30_15
*885 FILLER_30_153
*886 FILLER_30_165
*887 FILLER_30_177
*888 FILLER_30_189
*889 FILLER_30_195
*890 FILLER_30_197
*891 FILLER_30_209
*892 FILLER_30_221
*893 FILLER_30_233
*894 FILLER_30_245
*895 FILLER_30_251
*896 FILLER_30_253
*897 FILLER_30_265
*898 FILLER_30_27
*899 FILLER_30_277
*900 FILLER_30_289
*901 FILLER_30_29
*902 FILLER_30_3
*903 FILLER_30_301
*904 FILLER_30_307
*905 FILLER_30_309
*906 FILLER_30_321
*907 FILLER_30_333
*908 FILLER_30_41
*909 FILLER_30_53
*910 FILLER_30_65
*911 FILLER_30_77
*912 FILLER_30_83
*913 FILLER_30_85
*914 FILLER_30_97
*915 FILLER_31_105
*916 FILLER_31_111
*917 FILLER_31_113
*918 FILLER_31_125
*919 FILLER_31_137
*920 FILLER_31_149
*921 FILLER_31_15
*922 FILLER_31_161
*923 FILLER_31_167
*924 FILLER_31_169
*925 FILLER_31_181
*926 FILLER_31_193
*927 FILLER_31_205
*928 FILLER_31_217
*929 FILLER_31_223
*930 FILLER_31_225
*931 FILLER_31_237
*932 FILLER_31_249
*933 FILLER_31_261
*934 FILLER_31_27
*935 FILLER_31_273
*936 FILLER_31_279
*937 FILLER_31_281
*938 FILLER_31_293
*939 FILLER_31_3
*940 FILLER_31_305
*941 FILLER_31_317
*942 FILLER_31_329
*943 FILLER_31_39
*944 FILLER_31_51
*945 FILLER_31_55
*946 FILLER_31_57
*947 FILLER_31_69
*948 FILLER_31_81
*949 FILLER_31_93
*950 FILLER_32_109
*951 FILLER_32_121
*952 FILLER_32_133
*953 FILLER_32_139
*954 FILLER_32_141
*955 FILLER_32_15
*956 FILLER_32_153
*957 FILLER_32_165
*958 FILLER_32_177
*959 FILLER_32_189
*960 FILLER_32_195
*961 FILLER_32_197
*962 FILLER_32_209
*963 FILLER_32_221
*964 FILLER_32_233
*965 FILLER_32_245
*966 FILLER_32_251
*967 FILLER_32_253
*968 FILLER_32_265
*969 FILLER_32_27
*970 FILLER_32_277
*971 FILLER_32_289
*972 FILLER_32_29
*973 FILLER_32_3
*974 FILLER_32_301
*975 FILLER_32_307
*976 FILLER_32_309
*977 FILLER_32_321
*978 FILLER_32_333
*979 FILLER_32_41
*980 FILLER_32_53
*981 FILLER_32_65
*982 FILLER_32_77
*983 FILLER_32_83
*984 FILLER_32_85
*985 FILLER_32_97
*986 FILLER_33_105
*987 FILLER_33_111
*988 FILLER_33_113
*989 FILLER_33_125
*990 FILLER_33_137
*991 FILLER_33_149
*992 FILLER_33_15
*993 FILLER_33_161
*994 FILLER_33_167
*995 FILLER_33_169
*996 FILLER_33_181
*997 FILLER_33_193
*998 FILLER_33_205
*999 FILLER_33_217
*1000 FILLER_33_223
*1001 FILLER_33_225
*1002 FILLER_33_237
*1003 FILLER_33_249
*1004 FILLER_33_261
*1005 FILLER_33_27
*1006 FILLER_33_273
*1007 FILLER_33_279
*1008 FILLER_33_281
*1009 FILLER_33_293
*1010 FILLER_33_3
*1011 FILLER_33_305
*1012 FILLER_33_317
*1013 FILLER_33_329
*1014 FILLER_33_39
*1015 FILLER_33_51
*1016 FILLER_33_55
*1017 FILLER_33_57
*1018 FILLER_33_69
*1019 FILLER_33_81
*1020 FILLER_33_93
*1021 FILLER_34_109
*1022 FILLER_34_121
*1023 FILLER_34_133
*1024 FILLER_34_139
*1025 FILLER_34_141
*1026 FILLER_34_15
*1027 FILLER_34_153
*1028 FILLER_34_184
*1029 FILLER_34_197
*1030 FILLER_34_209
*1031 FILLER_34_221
*1032 FILLER_34_233
*1033 FILLER_34_245
*1034 FILLER_34_251
*1035 FILLER_34_253
*1036 FILLER_34_265
*1037 FILLER_34_27
*1038 FILLER_34_277
*1039 FILLER_34_289
*1040 FILLER_34_29
*1041 FILLER_34_3
*1042 FILLER_34_301
*1043 FILLER_34_307
*1044 FILLER_34_309
*1045 FILLER_34_321
*1046 FILLER_34_333
*1047 FILLER_34_41
*1048 FILLER_34_53
*1049 FILLER_34_65
*1050 FILLER_34_77
*1051 FILLER_34_83
*1052 FILLER_34_85
*1053 FILLER_34_97
*1054 FILLER_35_105
*1055 FILLER_35_111
*1056 FILLER_35_113
*1057 FILLER_35_125
*1058 FILLER_35_137
*1059 FILLER_35_149
*1060 FILLER_35_15
*1061 FILLER_35_161
*1062 FILLER_35_167
*1063 FILLER_35_169
*1064 FILLER_35_177
*1065 FILLER_35_203
*1066 FILLER_35_215
*1067 FILLER_35_223
*1068 FILLER_35_225
*1069 FILLER_35_237
*1070 FILLER_35_261
*1071 FILLER_35_27
*1072 FILLER_35_273
*1073 FILLER_35_279
*1074 FILLER_35_281
*1075 FILLER_35_293
*1076 FILLER_35_3
*1077 FILLER_35_305
*1078 FILLER_35_317
*1079 FILLER_35_329
*1080 FILLER_35_39
*1081 FILLER_35_51
*1082 FILLER_35_55
*1083 FILLER_35_57
*1084 FILLER_35_69
*1085 FILLER_35_81
*1086 FILLER_35_93
*1087 FILLER_36_109
*1088 FILLER_36_121
*1089 FILLER_36_133
*1090 FILLER_36_139
*1091 FILLER_36_141
*1092 FILLER_36_15
*1093 FILLER_36_153
*1094 FILLER_36_167
*1095 FILLER_36_179
*1096 FILLER_36_191
*1097 FILLER_36_195
*1098 FILLER_36_240
*1099 FILLER_36_253
*1100 FILLER_36_265
*1101 FILLER_36_27
*1102 FILLER_36_277
*1103 FILLER_36_289
*1104 FILLER_36_29
*1105 FILLER_36_3
*1106 FILLER_36_301
*1107 FILLER_36_307
*1108 FILLER_36_309
*1109 FILLER_36_321
*1110 FILLER_36_333
*1111 FILLER_36_41
*1112 FILLER_36_53
*1113 FILLER_36_65
*1114 FILLER_36_77
*1115 FILLER_36_83
*1116 FILLER_36_85
*1117 FILLER_36_97
*1118 FILLER_37_105
*1119 FILLER_37_111
*1120 FILLER_37_113
*1121 FILLER_37_125
*1122 FILLER_37_137
*1123 FILLER_37_149
*1124 FILLER_37_15
*1125 FILLER_37_159
*1126 FILLER_37_167
*1127 FILLER_37_169
*1128 FILLER_37_187
*1129 FILLER_37_211
*1130 FILLER_37_216
*1131 FILLER_37_27
*1132 FILLER_37_271
*1133 FILLER_37_279
*1134 FILLER_37_281
*1135 FILLER_37_293
*1136 FILLER_37_3
*1137 FILLER_37_305
*1138 FILLER_37_317
*1139 FILLER_37_329
*1140 FILLER_37_39
*1141 FILLER_37_51
*1142 FILLER_37_55
*1143 FILLER_37_57
*1144 FILLER_37_69
*1145 FILLER_37_81
*1146 FILLER_37_93
*1147 FILLER_38_100
*1148 FILLER_38_106
*1149 FILLER_38_113
*1150 FILLER_38_118
*1151 FILLER_38_124
*1152 FILLER_38_130
*1153 FILLER_38_136
*1154 FILLER_38_144
*1155 FILLER_38_148
*1156 FILLER_38_15
*1157 FILLER_38_154
*1158 FILLER_38_160
*1159 FILLER_38_166
*1160 FILLER_38_192
*1161 FILLER_38_211
*1162 FILLER_38_223
*1163 FILLER_38_225
*1164 FILLER_38_236
*1165 FILLER_38_248
*1166 FILLER_38_253
*1167 FILLER_38_265
*1168 FILLER_38_27
*1169 FILLER_38_277
*1170 FILLER_38_281
*1171 FILLER_38_29
*1172 FILLER_38_293
*1173 FILLER_38_3
*1174 FILLER_38_305
*1175 FILLER_38_309
*1176 FILLER_38_321
*1177 FILLER_38_333
*1178 FILLER_38_41
*1179 FILLER_38_53
*1180 FILLER_38_57
*1181 FILLER_38_64
*1182 FILLER_38_70
*1183 FILLER_38_76
*1184 FILLER_38_82
*1185 FILLER_38_88
*1186 FILLER_38_94
*1187 FILLER_3_105
*1188 FILLER_3_111
*1189 FILLER_3_113
*1190 FILLER_3_125
*1191 FILLER_3_137
*1192 FILLER_3_149
*1193 FILLER_3_15
*1194 FILLER_3_161
*1195 FILLER_3_167
*1196 FILLER_3_169
*1197 FILLER_3_181
*1198 FILLER_3_193
*1199 FILLER_3_205
*1200 FILLER_3_217
*1201 FILLER_3_223
*1202 FILLER_3_225
*1203 FILLER_3_237
*1204 FILLER_3_249
*1205 FILLER_3_261
*1206 FILLER_3_27
*1207 FILLER_3_273
*1208 FILLER_3_279
*1209 FILLER_3_281
*1210 FILLER_3_293
*1211 FILLER_3_3
*1212 FILLER_3_305
*1213 FILLER_3_317
*1214 FILLER_3_329
*1215 FILLER_3_39
*1216 FILLER_3_51
*1217 FILLER_3_55
*1218 FILLER_3_57
*1219 FILLER_3_69
*1220 FILLER_3_81
*1221 FILLER_3_93
*1222 FILLER_4_109
*1223 FILLER_4_121
*1224 FILLER_4_133
*1225 FILLER_4_139
*1226 FILLER_4_141
*1227 FILLER_4_15
*1228 FILLER_4_153
*1229 FILLER_4_165
*1230 FILLER_4_177
*1231 FILLER_4_189
*1232 FILLER_4_195
*1233 FILLER_4_197
*1234 FILLER_4_209
*1235 FILLER_4_221
*1236 FILLER_4_233
*1237 FILLER_4_245
*1238 FILLER_4_251
*1239 FILLER_4_253
*1240 FILLER_4_265
*1241 FILLER_4_27
*1242 FILLER_4_277
*1243 FILLER_4_289
*1244 FILLER_4_29
*1245 FILLER_4_3
*1246 FILLER_4_301
*1247 FILLER_4_307
*1248 FILLER_4_309
*1249 FILLER_4_321
*1250 FILLER_4_333
*1251 FILLER_4_41
*1252 FILLER_4_53
*1253 FILLER_4_65
*1254 FILLER_4_77
*1255 FILLER_4_83
*1256 FILLER_4_85
*1257 FILLER_4_97
*1258 FILLER_5_105
*1259 FILLER_5_111
*1260 FILLER_5_113
*1261 FILLER_5_125
*1262 FILLER_5_137
*1263 FILLER_5_149
*1264 FILLER_5_15
*1265 FILLER_5_161
*1266 FILLER_5_167
*1267 FILLER_5_169
*1268 FILLER_5_181
*1269 FILLER_5_193
*1270 FILLER_5_205
*1271 FILLER_5_217
*1272 FILLER_5_223
*1273 FILLER_5_225
*1274 FILLER_5_237
*1275 FILLER_5_249
*1276 FILLER_5_261
*1277 FILLER_5_27
*1278 FILLER_5_273
*1279 FILLER_5_279
*1280 FILLER_5_281
*1281 FILLER_5_293
*1282 FILLER_5_3
*1283 FILLER_5_305
*1284 FILLER_5_317
*1285 FILLER_5_329
*1286 FILLER_5_39
*1287 FILLER_5_51
*1288 FILLER_5_55
*1289 FILLER_5_57
*1290 FILLER_5_69
*1291 FILLER_5_81
*1292 FILLER_5_93
*1293 FILLER_6_109
*1294 FILLER_6_121
*1295 FILLER_6_133
*1296 FILLER_6_139
*1297 FILLER_6_141
*1298 FILLER_6_15
*1299 FILLER_6_153
*1300 FILLER_6_165
*1301 FILLER_6_177
*1302 FILLER_6_189
*1303 FILLER_6_195
*1304 FILLER_6_197
*1305 FILLER_6_209
*1306 FILLER_6_221
*1307 FILLER_6_233
*1308 FILLER_6_245
*1309 FILLER_6_251
*1310 FILLER_6_253
*1311 FILLER_6_265
*1312 FILLER_6_27
*1313 FILLER_6_277
*1314 FILLER_6_289
*1315 FILLER_6_29
*1316 FILLER_6_3
*1317 FILLER_6_301
*1318 FILLER_6_307
*1319 FILLER_6_309
*1320 FILLER_6_321
*1321 FILLER_6_333
*1322 FILLER_6_41
*1323 FILLER_6_53
*1324 FILLER_6_65
*1325 FILLER_6_77
*1326 FILLER_6_83
*1327 FILLER_6_85
*1328 FILLER_6_97
*1329 FILLER_7_105
*1330 FILLER_7_111
*1331 FILLER_7_113
*1332 FILLER_7_125
*1333 FILLER_7_137
*1334 FILLER_7_149
*1335 FILLER_7_15
*1336 FILLER_7_161
*1337 FILLER_7_167
*1338 FILLER_7_169
*1339 FILLER_7_181
*1340 FILLER_7_193
*1341 FILLER_7_205
*1342 FILLER_7_217
*1343 FILLER_7_223
*1344 FILLER_7_225
*1345 FILLER_7_237
*1346 FILLER_7_249
*1347 FILLER_7_261
*1348 FILLER_7_27
*1349 FILLER_7_273
*1350 FILLER_7_279
*1351 FILLER_7_281
*1352 FILLER_7_293
*1353 FILLER_7_3
*1354 FILLER_7_305
*1355 FILLER_7_317
*1356 FILLER_7_329
*1357 FILLER_7_39
*1358 FILLER_7_51
*1359 FILLER_7_55
*1360 FILLER_7_57
*1361 FILLER_7_69
*1362 FILLER_7_81
*1363 FILLER_7_93
*1364 FILLER_8_109
*1365 FILLER_8_121
*1366 FILLER_8_133
*1367 FILLER_8_139
*1368 FILLER_8_141
*1369 FILLER_8_15
*1370 FILLER_8_153
*1371 FILLER_8_165
*1372 FILLER_8_177
*1373 FILLER_8_189
*1374 FILLER_8_195
*1375 FILLER_8_197
*1376 FILLER_8_209
*1377 FILLER_8_221
*1378 FILLER_8_233
*1379 FILLER_8_245
*1380 FILLER_8_251
*1381 FILLER_8_253
*1382 FILLER_8_265
*1383 FILLER_8_27
*1384 FILLER_8_277
*1385 FILLER_8_289
*1386 FILLER_8_29
*1387 FILLER_8_3
*1388 FILLER_8_301
*1389 FILLER_8_307
*1390 FILLER_8_309
*1391 FILLER_8_321
*1392 FILLER_8_333
*1393 FILLER_8_41
*1394 FILLER_8_53
*1395 FILLER_8_65
*1396 FILLER_8_77
*1397 FILLER_8_83
*1398 FILLER_8_85
*1399 FILLER_8_97
*1400 FILLER_9_105
*1401 FILLER_9_111
*1402 FILLER_9_113
*1403 FILLER_9_125
*1404 FILLER_9_137
*1405 FILLER_9_149
*1406 FILLER_9_15
*1407 FILLER_9_161
*1408 FILLER_9_167
*1409 FILLER_9_169
*1410 FILLER_9_181
*1411 FILLER_9_193
*1412 FILLER_9_205
*1413 FILLER_9_217
*1414 FILLER_9_223
*1415 FILLER_9_225
*1416 FILLER_9_237
*1417 FILLER_9_249
*1418 FILLER_9_261
*1419 FILLER_9_27
*1420 FILLER_9_273
*1421 FILLER_9_279
*1422 FILLER_9_281
*1423 FILLER_9_293
*1424 FILLER_9_3
*1425 FILLER_9_305
*1426 FILLER_9_317
*1427 FILLER_9_329
*1428 FILLER_9_39
*1429 FILLER_9_51
*1430 FILLER_9_55
*1431 FILLER_9_57
*1432 FILLER_9_69
*1433 FILLER_9_81
*1434 FILLER_9_93
*1435 PHY_EDGE_ROW_0_Left_39
*1436 PHY_EDGE_ROW_0_Right_0
*1437 PHY_EDGE_ROW_10_Left_49
*1438 PHY_EDGE_ROW_10_Right_10
*1439 PHY_EDGE_ROW_11_Left_50
*1440 PHY_EDGE_ROW_11_Right_11
*1441 PHY_EDGE_ROW_12_Left_51
*1442 PHY_EDGE_ROW_12_Right_12
*1443 PHY_EDGE_ROW_13_Left_52
*1444 PHY_EDGE_ROW_13_Right_13
*1445 PHY_EDGE_ROW_14_Left_53
*1446 PHY_EDGE_ROW_14_Right_14
*1447 PHY_EDGE_ROW_15_Left_54
*1448 PHY_EDGE_ROW_15_Right_15
*1449 PHY_EDGE_ROW_16_Left_55
*1450 PHY_EDGE_ROW_16_Right_16
*1451 PHY_EDGE_ROW_17_Left_56
*1452 PHY_EDGE_ROW_17_Right_17
*1453 PHY_EDGE_ROW_18_Left_57
*1454 PHY_EDGE_ROW_18_Right_18
*1455 PHY_EDGE_ROW_19_Left_58
*1456 PHY_EDGE_ROW_19_Right_19
*1457 PHY_EDGE_ROW_1_Left_40
*1458 PHY_EDGE_ROW_1_Right_1
*1459 PHY_EDGE_ROW_20_Left_59
*1460 PHY_EDGE_ROW_20_Right_20
*1461 PHY_EDGE_ROW_21_Left_60
*1462 PHY_EDGE_ROW_21_Right_21
*1463 PHY_EDGE_ROW_22_Left_61
*1464 PHY_EDGE_ROW_22_Right_22
*1465 PHY_EDGE_ROW_23_Left_62
*1466 PHY_EDGE_ROW_23_Right_23
*1467 PHY_EDGE_ROW_24_Left_63
*1468 PHY_EDGE_ROW_24_Right_24
*1469 PHY_EDGE_ROW_25_Left_64
*1470 PHY_EDGE_ROW_25_Right_25
*1471 PHY_EDGE_ROW_26_Left_65
*1472 PHY_EDGE_ROW_26_Right_26
*1473 PHY_EDGE_ROW_27_Left_66
*1474 PHY_EDGE_ROW_27_Right_27
*1475 PHY_EDGE_ROW_28_Left_67
*1476 PHY_EDGE_ROW_28_Right_28
*1477 PHY_EDGE_ROW_29_Left_68
*1478 PHY_EDGE_ROW_29_Right_29
*1479 PHY_EDGE_ROW_2_Left_41
*1480 PHY_EDGE_ROW_2_Right_2
*1481 PHY_EDGE_ROW_30_Left_69
*1482 PHY_EDGE_ROW_30_Right_30
*1483 PHY_EDGE_ROW_31_Left_70
*1484 PHY_EDGE_ROW_31_Right_31
*1485 PHY_EDGE_ROW_32_Left_71
*1486 PHY_EDGE_ROW_32_Right_32
*1487 PHY_EDGE_ROW_33_Left_72
*1488 PHY_EDGE_ROW_33_Right_33
*1489 PHY_EDGE_ROW_34_Left_73
*1490 PHY_EDGE_ROW_34_Right_34
*1491 PHY_EDGE_ROW_35_Left_74
*1492 PHY_EDGE_ROW_35_Right_35
*1493 PHY_EDGE_ROW_36_Left_75
*1494 PHY_EDGE_ROW_36_Right_36
*1495 PHY_EDGE_ROW_37_Left_76
*1496 PHY_EDGE_ROW_37_Right_37
*1497 PHY_EDGE_ROW_38_Left_77
*1498 PHY_EDGE_ROW_38_Right_38
*1499 PHY_EDGE_ROW_3_Left_42
*1500 PHY_EDGE_ROW_3_Right_3
*1501 PHY_EDGE_ROW_4_Left_43
*1502 PHY_EDGE_ROW_4_Right_4
*1503 PHY_EDGE_ROW_5_Left_44
*1504 PHY_EDGE_ROW_5_Right_5
*1505 PHY_EDGE_ROW_6_Left_45
*1506 PHY_EDGE_ROW_6_Right_6
*1507 PHY_EDGE_ROW_7_Left_46
*1508 PHY_EDGE_ROW_7_Right_7
*1509 PHY_EDGE_ROW_8_Left_47
*1510 PHY_EDGE_ROW_8_Right_8
*1511 PHY_EDGE_ROW_9_Left_48
*1512 PHY_EDGE_ROW_9_Right_9
*1513 TAP_TAPCELL_ROW_0_78
*1514 TAP_TAPCELL_ROW_0_79
*1515 TAP_TAPCELL_ROW_0_80
*1516 TAP_TAPCELL_ROW_0_81
*1517 TAP_TAPCELL_ROW_0_82
*1518 TAP_TAPCELL_ROW_0_83
*1519 TAP_TAPCELL_ROW_0_84
*1520 TAP_TAPCELL_ROW_0_85
*1521 TAP_TAPCELL_ROW_0_86
*1522 TAP_TAPCELL_ROW_0_87
*1523 TAP_TAPCELL_ROW_0_88
*1524 TAP_TAPCELL_ROW_10_138
*1525 TAP_TAPCELL_ROW_10_139
*1526 TAP_TAPCELL_ROW_10_140
*1527 TAP_TAPCELL_ROW_10_141
*1528 TAP_TAPCELL_ROW_10_142
*1529 TAP_TAPCELL_ROW_10_143
*1530 TAP_TAPCELL_ROW_11_144
*1531 TAP_TAPCELL_ROW_11_145
*1532 TAP_TAPCELL_ROW_11_146
*1533 TAP_TAPCELL_ROW_11_147
*1534 TAP_TAPCELL_ROW_11_148
*1535 TAP_TAPCELL_ROW_12_149
*1536 TAP_TAPCELL_ROW_12_150
*1537 TAP_TAPCELL_ROW_12_151
*1538 TAP_TAPCELL_ROW_12_152
*1539 TAP_TAPCELL_ROW_12_153
*1540 TAP_TAPCELL_ROW_12_154
*1541 TAP_TAPCELL_ROW_13_155
*1542 TAP_TAPCELL_ROW_13_156
*1543 TAP_TAPCELL_ROW_13_157
*1544 TAP_TAPCELL_ROW_13_158
*1545 TAP_TAPCELL_ROW_13_159
*1546 TAP_TAPCELL_ROW_14_160
*1547 TAP_TAPCELL_ROW_14_161
*1548 TAP_TAPCELL_ROW_14_162
*1549 TAP_TAPCELL_ROW_14_163
*1550 TAP_TAPCELL_ROW_14_164
*1551 TAP_TAPCELL_ROW_14_165
*1552 TAP_TAPCELL_ROW_15_166
*1553 TAP_TAPCELL_ROW_15_167
*1554 TAP_TAPCELL_ROW_15_168
*1555 TAP_TAPCELL_ROW_15_169
*1556 TAP_TAPCELL_ROW_15_170
*1557 TAP_TAPCELL_ROW_16_171
*1558 TAP_TAPCELL_ROW_16_172
*1559 TAP_TAPCELL_ROW_16_173
*1560 TAP_TAPCELL_ROW_16_174
*1561 TAP_TAPCELL_ROW_16_175
*1562 TAP_TAPCELL_ROW_16_176
*1563 TAP_TAPCELL_ROW_17_177
*1564 TAP_TAPCELL_ROW_17_178
*1565 TAP_TAPCELL_ROW_17_179
*1566 TAP_TAPCELL_ROW_17_180
*1567 TAP_TAPCELL_ROW_17_181
*1568 TAP_TAPCELL_ROW_18_182
*1569 TAP_TAPCELL_ROW_18_183
*1570 TAP_TAPCELL_ROW_18_184
*1571 TAP_TAPCELL_ROW_18_185
*1572 TAP_TAPCELL_ROW_18_186
*1573 TAP_TAPCELL_ROW_18_187
*1574 TAP_TAPCELL_ROW_19_188
*1575 TAP_TAPCELL_ROW_19_189
*1576 TAP_TAPCELL_ROW_19_190
*1577 TAP_TAPCELL_ROW_19_191
*1578 TAP_TAPCELL_ROW_19_192
*1579 TAP_TAPCELL_ROW_1_89
*1580 TAP_TAPCELL_ROW_1_90
*1581 TAP_TAPCELL_ROW_1_91
*1582 TAP_TAPCELL_ROW_1_92
*1583 TAP_TAPCELL_ROW_1_93
*1584 TAP_TAPCELL_ROW_20_193
*1585 TAP_TAPCELL_ROW_20_194
*1586 TAP_TAPCELL_ROW_20_195
*1587 TAP_TAPCELL_ROW_20_196
*1588 TAP_TAPCELL_ROW_20_197
*1589 TAP_TAPCELL_ROW_20_198
*1590 TAP_TAPCELL_ROW_21_199
*1591 TAP_TAPCELL_ROW_21_200
*1592 TAP_TAPCELL_ROW_21_201
*1593 TAP_TAPCELL_ROW_21_202
*1594 TAP_TAPCELL_ROW_21_203
*1595 TAP_TAPCELL_ROW_22_204
*1596 TAP_TAPCELL_ROW_22_205
*1597 TAP_TAPCELL_ROW_22_206
*1598 TAP_TAPCELL_ROW_22_207
*1599 TAP_TAPCELL_ROW_22_208
*1600 TAP_TAPCELL_ROW_22_209
*1601 TAP_TAPCELL_ROW_23_210
*1602 TAP_TAPCELL_ROW_23_211
*1603 TAP_TAPCELL_ROW_23_212
*1604 TAP_TAPCELL_ROW_23_213
*1605 TAP_TAPCELL_ROW_23_214
*1606 TAP_TAPCELL_ROW_24_215
*1607 TAP_TAPCELL_ROW_24_216
*1608 TAP_TAPCELL_ROW_24_217
*1609 TAP_TAPCELL_ROW_24_218
*1610 TAP_TAPCELL_ROW_24_219
*1611 TAP_TAPCELL_ROW_24_220
*1612 TAP_TAPCELL_ROW_25_221
*1613 TAP_TAPCELL_ROW_25_222
*1614 TAP_TAPCELL_ROW_25_223
*1615 TAP_TAPCELL_ROW_25_224
*1616 TAP_TAPCELL_ROW_25_225
*1617 TAP_TAPCELL_ROW_26_226
*1618 TAP_TAPCELL_ROW_26_227
*1619 TAP_TAPCELL_ROW_26_228
*1620 TAP_TAPCELL_ROW_26_229
*1621 TAP_TAPCELL_ROW_26_230
*1622 TAP_TAPCELL_ROW_26_231
*1623 TAP_TAPCELL_ROW_27_232
*1624 TAP_TAPCELL_ROW_27_233
*1625 TAP_TAPCELL_ROW_27_234
*1626 TAP_TAPCELL_ROW_27_235
*1627 TAP_TAPCELL_ROW_27_236
*1628 TAP_TAPCELL_ROW_28_237
*1629 TAP_TAPCELL_ROW_28_238
*1630 TAP_TAPCELL_ROW_28_239
*1631 TAP_TAPCELL_ROW_28_240
*1632 TAP_TAPCELL_ROW_28_241
*1633 TAP_TAPCELL_ROW_28_242
*1634 TAP_TAPCELL_ROW_29_243
*1635 TAP_TAPCELL_ROW_29_244
*1636 TAP_TAPCELL_ROW_29_245
*1637 TAP_TAPCELL_ROW_29_246
*1638 TAP_TAPCELL_ROW_29_247
*1639 TAP_TAPCELL_ROW_2_94
*1640 TAP_TAPCELL_ROW_2_95
*1641 TAP_TAPCELL_ROW_2_96
*1642 TAP_TAPCELL_ROW_2_97
*1643 TAP_TAPCELL_ROW_2_98
*1644 TAP_TAPCELL_ROW_2_99
*1645 TAP_TAPCELL_ROW_30_248
*1646 TAP_TAPCELL_ROW_30_249
*1647 TAP_TAPCELL_ROW_30_250
*1648 TAP_TAPCELL_ROW_30_251
*1649 TAP_TAPCELL_ROW_30_252
*1650 TAP_TAPCELL_ROW_30_253
*1651 TAP_TAPCELL_ROW_31_254
*1652 TAP_TAPCELL_ROW_31_255
*1653 TAP_TAPCELL_ROW_31_256
*1654 TAP_TAPCELL_ROW_31_257
*1655 TAP_TAPCELL_ROW_31_258
*1656 TAP_TAPCELL_ROW_32_259
*1657 TAP_TAPCELL_ROW_32_260
*1658 TAP_TAPCELL_ROW_32_261
*1659 TAP_TAPCELL_ROW_32_262
*1660 TAP_TAPCELL_ROW_32_263
*1661 TAP_TAPCELL_ROW_32_264
*1662 TAP_TAPCELL_ROW_33_265
*1663 TAP_TAPCELL_ROW_33_266
*1664 TAP_TAPCELL_ROW_33_267
*1665 TAP_TAPCELL_ROW_33_268
*1666 TAP_TAPCELL_ROW_33_269
*1667 TAP_TAPCELL_ROW_34_270
*1668 TAP_TAPCELL_ROW_34_271
*1669 TAP_TAPCELL_ROW_34_272
*1670 TAP_TAPCELL_ROW_34_273
*1671 TAP_TAPCELL_ROW_34_274
*1672 TAP_TAPCELL_ROW_34_275
*1673 TAP_TAPCELL_ROW_35_276
*1674 TAP_TAPCELL_ROW_35_277
*1675 TAP_TAPCELL_ROW_35_278
*1676 TAP_TAPCELL_ROW_35_279
*1677 TAP_TAPCELL_ROW_35_280
*1678 TAP_TAPCELL_ROW_36_281
*1679 TAP_TAPCELL_ROW_36_282
*1680 TAP_TAPCELL_ROW_36_283
*1681 TAP_TAPCELL_ROW_36_284
*1682 TAP_TAPCELL_ROW_36_285
*1683 TAP_TAPCELL_ROW_36_286
*1684 TAP_TAPCELL_ROW_37_287
*1685 TAP_TAPCELL_ROW_37_288
*1686 TAP_TAPCELL_ROW_37_289
*1687 TAP_TAPCELL_ROW_37_290
*1688 TAP_TAPCELL_ROW_37_291
*1689 TAP_TAPCELL_ROW_38_292
*1690 TAP_TAPCELL_ROW_38_293
*1691 TAP_TAPCELL_ROW_38_294
*1692 TAP_TAPCELL_ROW_38_295
*1693 TAP_TAPCELL_ROW_38_296
*1694 TAP_TAPCELL_ROW_38_297
*1695 TAP_TAPCELL_ROW_38_298
*1696 TAP_TAPCELL_ROW_38_299
*1697 TAP_TAPCELL_ROW_38_300
*1698 TAP_TAPCELL_ROW_38_301
*1699 TAP_TAPCELL_ROW_38_302
*1700 TAP_TAPCELL_ROW_3_100
*1701 TAP_TAPCELL_ROW_3_101
*1702 TAP_TAPCELL_ROW_3_102
*1703 TAP_TAPCELL_ROW_3_103
*1704 TAP_TAPCELL_ROW_3_104
*1705 TAP_TAPCELL_ROW_4_105
*1706 TAP_TAPCELL_ROW_4_106
*1707 TAP_TAPCELL_ROW_4_107
*1708 TAP_TAPCELL_ROW_4_108
*1709 TAP_TAPCELL_ROW_4_109
*1710 TAP_TAPCELL_ROW_4_110
*1711 TAP_TAPCELL_ROW_5_111
*1712 TAP_TAPCELL_ROW_5_112
*1713 TAP_TAPCELL_ROW_5_113
*1714 TAP_TAPCELL_ROW_5_114
*1715 TAP_TAPCELL_ROW_5_115
*1716 TAP_TAPCELL_ROW_6_116
*1717 TAP_TAPCELL_ROW_6_117
*1718 TAP_TAPCELL_ROW_6_118
*1719 TAP_TAPCELL_ROW_6_119
*1720 TAP_TAPCELL_ROW_6_120
*1721 TAP_TAPCELL_ROW_6_121
*1722 TAP_TAPCELL_ROW_7_122
*1723 TAP_TAPCELL_ROW_7_123
*1724 TAP_TAPCELL_ROW_7_124
*1725 TAP_TAPCELL_ROW_7_125
*1726 TAP_TAPCELL_ROW_7_126
*1727 TAP_TAPCELL_ROW_8_127
*1728 TAP_TAPCELL_ROW_8_128
*1729 TAP_TAPCELL_ROW_8_129
*1730 TAP_TAPCELL_ROW_8_130
*1731 TAP_TAPCELL_ROW_8_131
*1732 TAP_TAPCELL_ROW_8_132
*1733 TAP_TAPCELL_ROW_9_133
*1734 TAP_TAPCELL_ROW_9_134
*1735 TAP_TAPCELL_ROW_9_135
*1736 TAP_TAPCELL_ROW_9_136
*1737 TAP_TAPCELL_ROW_9_137
*1738 _12_
*1739 _13_
*1740 _14_
*1741 _15_
*1742 _16_
*1743 _17_
*1744 _18_
*1745 _19_
*1746 _20_
*1747 _21_
*1748 _22_
*1749 _23_
*1750 _24_
*1751 _25_
*1752 _26_
*1753 _27_
*1754 _28_
*1755 _29_
*1756 clkbuf_0_clk
*1757 clkbuf_1_0__f_clk
*1758 clkbuf_1_1__f_clk
*1759 input1
*1760 tt_um_josue_olivos_6bit_counter_10
*1761 tt_um_josue_olivos_6bit_counter_11
*1762 tt_um_josue_olivos_6bit_counter_12
*1763 tt_um_josue_olivos_6bit_counter_13
*1764 tt_um_josue_olivos_6bit_counter_14
*1765 tt_um_josue_olivos_6bit_counter_15
*1766 tt_um_josue_olivos_6bit_counter_16
*1767 tt_um_josue_olivos_6bit_counter_17
*1768 tt_um_josue_olivos_6bit_counter_18
*1769 tt_um_josue_olivos_6bit_counter_19
*1770 tt_um_josue_olivos_6bit_counter_2
*1771 tt_um_josue_olivos_6bit_counter_3
*1772 tt_um_josue_olivos_6bit_counter_4
*1773 tt_um_josue_olivos_6bit_counter_5
*1774 tt_um_josue_olivos_6bit_counter_6
*1775 tt_um_josue_olivos_6bit_counter_7
*1776 tt_um_josue_olivos_6bit_counter_8
*1777 tt_um_josue_olivos_6bit_counter_9

*PORTS
clk I
ena I
rst_n I
ui_in[0] I
ui_in[1] I
ui_in[2] I
ui_in[3] I
ui_in[4] I
ui_in[5] I
ui_in[6] I
ui_in[7] I
uio_in[0] I
uio_in[1] I
uio_in[2] I
uio_in[3] I
uio_in[4] I
uio_in[5] I
uio_in[6] I
uio_in[7] I
uio_oe[0] O
uio_oe[1] O
uio_oe[2] O
uio_oe[3] O
uio_oe[4] O
uio_oe[5] O
uio_oe[6] O
uio_oe[7] O
uio_out[0] O
uio_out[1] O
uio_out[2] O
uio_out[3] O
uio_out[4] O
uio_out[5] O
uio_out[6] O
uio_out[7] O
uo_out[0] O
uo_out[1] O
uo_out[2] O
uo_out[3] O
uo_out[4] O
uo_out[5] O
uo_out[6] O
uo_out[7] O

*D_NET *3 0.00472836
*CONN
*P clk I
*I *1756:A I *D sky130_fd_sc_hd__clkbuf_16
*CAP
1 clk 0.00215313
2 *1756:A 0
3 *3:17 0.00215313
4 *3:17 *1750:CLK 0.000405727
5 *3:17 *1759:A 1.63602e-05
*RES
1 clk *3:17 42.32 
2 *3:17 *1756:A 9.3 
*END

*D_NET *5 0.000502078
*CONN
*P rst_n I
*I *1759:A I *D sky130_fd_sc_hd__buf_2
*CAP
1 rst_n 0.000242859
2 *1759:A 0.000242859
3 *3:17 *1759:A 1.63602e-05
*RES
1 rst_n *1759:A 23.8169 
*END

*D_NET *22 0.00041663
*CONN
*P uio_oe[0] O
*I *1770:LO O *D sky130_fd_sc_hd__conb_1
*CAP
1 uio_oe[0] 0.000129501
2 *1770:LO 0.000129501
3 uio_oe[0] uio_oe[1] 7.88136e-05
4 uio_oe[0] uio_out[7] 7.88136e-05
*RES
1 *1770:LO uio_oe[0] 21.4044 
*END

*D_NET *23 0.00041663
*CONN
*P uio_oe[1] O
*I *1771:LO O *D sky130_fd_sc_hd__conb_1
*CAP
1 uio_oe[1] 0.000129501
2 *1771:LO 0.000129501
3 uio_oe[1] uio_oe[2] 7.88136e-05
4 uio_oe[0] uio_oe[1] 7.88136e-05
*RES
1 *1771:LO uio_oe[1] 21.4044 
*END

*D_NET *24 0.00041663
*CONN
*P uio_oe[2] O
*I *1772:LO O *D sky130_fd_sc_hd__conb_1
*CAP
1 uio_oe[2] 0.000129501
2 *1772:LO 0.000129501
3 uio_oe[2] uio_oe[3] 7.88136e-05
4 uio_oe[1] uio_oe[2] 7.88136e-05
*RES
1 *1772:LO uio_oe[2] 21.4044 
*END

*D_NET *25 0.00041663
*CONN
*P uio_oe[3] O
*I *1773:LO O *D sky130_fd_sc_hd__conb_1
*CAP
1 uio_oe[3] 0.000129501
2 *1773:LO 0.000129501
3 uio_oe[3] uio_oe[4] 7.88136e-05
4 uio_oe[2] uio_oe[3] 7.88136e-05
*RES
1 *1773:LO uio_oe[3] 21.4044 
*END

*D_NET *26 0.00041663
*CONN
*P uio_oe[4] O
*I *1774:LO O *D sky130_fd_sc_hd__conb_1
*CAP
1 uio_oe[4] 0.000129501
2 *1774:LO 0.000129501
3 uio_oe[4] uio_oe[5] 7.88136e-05
4 uio_oe[3] uio_oe[4] 7.88136e-05
*RES
1 *1774:LO uio_oe[4] 21.4044 
*END

*D_NET *27 0.00041663
*CONN
*P uio_oe[5] O
*I *1775:LO O *D sky130_fd_sc_hd__conb_1
*CAP
1 uio_oe[5] 0.000129501
2 *1775:LO 0.000129501
3 uio_oe[5] uio_oe[6] 7.88136e-05
4 uio_oe[4] uio_oe[5] 7.88136e-05
*RES
1 *1775:LO uio_oe[5] 21.4044 
*END

*D_NET *28 0.00041663
*CONN
*P uio_oe[6] O
*I *1776:LO O *D sky130_fd_sc_hd__conb_1
*CAP
1 uio_oe[6] 0.000129501
2 *1776:LO 0.000129501
3 uio_oe[6] uio_oe[7] 7.88136e-05
4 uio_oe[5] uio_oe[6] 7.88136e-05
*RES
1 *1776:LO uio_oe[6] 21.4044 
*END

*D_NET *29 0.000394042
*CONN
*P uio_oe[7] O
*I *1777:LO O *D sky130_fd_sc_hd__conb_1
*CAP
1 uio_oe[7] 0.000157614
2 *1777:LO 0.000157614
3 uio_oe[6] uio_oe[7] 7.88136e-05
*RES
1 *1777:LO uio_oe[7] 21.4044 
*END

*D_NET *30 0.00041663
*CONN
*P uio_out[0] O
*I *1760:LO O *D sky130_fd_sc_hd__conb_1
*CAP
1 uio_out[0] 0.000129501
2 *1760:LO 0.000129501
3 uio_out[0] uio_out[1] 7.88136e-05
4 uio_out[0] uo_out[7] 7.88136e-05
*RES
1 *1760:LO uio_out[0] 21.4044 
*END

*D_NET *31 0.00041663
*CONN
*P uio_out[1] O
*I *1761:LO O *D sky130_fd_sc_hd__conb_1
*CAP
1 uio_out[1] 0.000129501
2 *1761:LO 0.000129501
3 uio_out[1] uio_out[2] 7.88136e-05
4 uio_out[0] uio_out[1] 7.88136e-05
*RES
1 *1761:LO uio_out[1] 21.4044 
*END

*D_NET *32 0.000508546
*CONN
*P uio_out[2] O
*I *1762:LO O *D sky130_fd_sc_hd__conb_1
*CAP
1 uio_out[2] 0.00017546
2 *1762:LO 0.00017546
3 uio_out[2] uio_out[3] 7.88136e-05
4 uio_out[1] uio_out[2] 7.88136e-05
*RES
1 *1762:LO uio_out[2] 21.5485 
*END

*D_NET *33 0.000416758
*CONN
*P uio_out[3] O
*I *1763:LO O *D sky130_fd_sc_hd__conb_1
*CAP
1 uio_out[3] 0.000150204
2 *1763:LO 0.000150204
3 uio_out[3] uio_out[4] 3.7536e-05
4 uio_out[3] uio_out[6] 0
5 uio_out[2] uio_out[3] 7.88136e-05
*RES
1 *1763:LO uio_out[3] 21.4044 
*END

*D_NET *34 0.000437677
*CONN
*P uio_out[4] O
*I *1764:LO O *D sky130_fd_sc_hd__conb_1
*CAP
1 uio_out[4] 0.000181303
2 *1764:LO 0.000181303
3 uio_out[4] uio_out[5] 3.7536e-05
4 uio_out[3] uio_out[4] 3.7536e-05
*RES
1 *1764:LO uio_out[4] 22.4056 
*END

*D_NET *35 0.000591347
*CONN
*P uio_out[5] O
*I *1765:LO O *D sky130_fd_sc_hd__conb_1
*CAP
1 uio_out[5] 0.000255885
2 *1765:LO 0.000255885
3 uio_out[5] uio_out[6] 4.20402e-05
4 uio_out[4] uio_out[5] 3.7536e-05
*RES
1 *1765:LO uio_out[5] 23.0134 
*END

*D_NET *36 0.000421374
*CONN
*P uio_out[6] O
*I *1766:LO O *D sky130_fd_sc_hd__conb_1
*CAP
1 uio_out[6] 0.00015026
2 *1766:LO 0.00015026
3 uio_out[6] uio_out[7] 7.88136e-05
4 uio_out[3] uio_out[6] 0
5 uio_out[5] uio_out[6] 4.20402e-05
*RES
1 *1766:LO uio_out[6] 21.4044 
*END

*D_NET *37 0.00041663
*CONN
*P uio_out[7] O
*I *1767:LO O *D sky130_fd_sc_hd__conb_1
*CAP
1 uio_out[7] 0.000129501
2 *1767:LO 0.000129501
3 uio_oe[0] uio_out[7] 7.88136e-05
4 uio_out[6] uio_out[7] 7.88136e-05
*RES
1 *1767:LO uio_out[7] 21.4044 
*END

*D_NET *38 0.00338642
*CONN
*P uo_out[0] O
*I *1744:A2 I *D sky130_fd_sc_hd__a31o_1
*I *1739:B I *D sky130_fd_sc_hd__nand2_1
*I *1738:A I *D sky130_fd_sc_hd__inv_2
*I *1740:B I *D sky130_fd_sc_hd__or2_1
*I *1743:B I *D sky130_fd_sc_hd__and4_1
*I *1750:Q O *D sky130_fd_sc_hd__dfrtp_4
*CAP
1 uo_out[0] 0.000216119
2 *1744:A2 0
3 *1739:B 7.9384e-05
4 *1738:A 0
5 *1740:B 9.29137e-05
6 *1743:B 0
7 *1750:Q 0.000182495
8 *38:50 0.000332045
9 *38:18 0.00019926
10 *38:14 0.00037
11 *38:10 0.000482691
12 uo_out[0] uo_out[1] 7.97724e-05
13 uo_out[0] uo_out[2] 2.85951e-05
14 uo_out[0] uo_out[3] 9.69276e-05
15 *1739:B *1757:A 0.000228514
16 *1740:B *39:14 0.000143375
17 *1740:B *39:16 9.83442e-05
18 *1740:B *40:24 0.000123068
19 *1740:B *41:12 0
20 *38:10 *41:12 0.000201127
21 *38:14 *1757:A 5.49489e-05
22 *38:14 *54:12 0.000182598
23 *38:50 uo_out[1] 2.03997e-05
24 *38:50 uo_out[2] 9.54798e-06
25 *38:50 *41:12 0.000158707
26 *38:50 *41:28 5.58875e-06
*RES
1 *1750:Q *38:10 17.7107 
2 *38:10 *38:14 7.91071 
3 *38:14 *38:18 6.14286 
4 *38:18 *1743:B 13.8 
5 *38:18 *1740:B 16.7107 
6 *38:14 *1738:A 9.3 
7 *38:14 *1739:B 11.4786 
8 *38:10 *38:50 2.55357 
9 *38:50 *1744:A2 13.8 
10 *38:50 uo_out[0] 7.78299 
*END

*D_NET *39 0.00360582
*CONN
*P uo_out[1] O
*I *1739:A I *D sky130_fd_sc_hd__nand2_1
*I *1740:A I *D sky130_fd_sc_hd__or2_1
*I *1743:A I *D sky130_fd_sc_hd__and4_1
*I *1744:A1 I *D sky130_fd_sc_hd__a31o_1
*I *1751:Q O *D sky130_fd_sc_hd__dfrtp_4
*CAP
1 uo_out[1] 0.000303378
2 *1739:A 0
3 *1740:A 0
4 *1743:A 0
5 *1744:A1 2.88832e-05
6 *1751:Q 0.000106905
7 *39:16 0.000528681
8 *39:14 0.000306977
9 *39:12 0.000241949
10 *39:6 0.000238297
11 uo_out[1] uo_out[2] 0.000404052
12 uo_out[1] uo_out[3] 0.000160141
13 uo_out[1] *40:28 3.14048e-05
14 *1744:A1 *1743:C 0
15 *39:6 *1742:B 0.000120587
16 *39:6 *1757:A 0.000228558
17 *39:6 *61:40 0.000271345
18 *39:12 *1741:A 0
19 *39:14 *40:24 6.68349e-05
20 *39:16 *1743:D 0.000186765
21 *39:16 *40:24 9.76435e-06
22 *39:16 *40:28 2.94004e-05
23 uo_out[0] uo_out[1] 7.97724e-05
24 *1740:B *39:14 0.000143375
25 *1740:B *39:16 9.83442e-05
26 *38:50 uo_out[1] 2.03997e-05
*RES
1 *1751:Q *39:6 13.5321 
2 *39:6 *39:12 10.9464 
3 *39:12 *39:14 2.17857 
4 *39:14 *39:16 3.82143 
5 *39:16 uo_out[1] 15.0361 
6 *39:16 *1744:A1 9.72857 
7 *39:14 *1743:A 9.3 
8 *39:12 *1740:A 9.3 
9 *39:6 *1739:A 9.3 
*END

*D_NET *40 0.0064496
*CONN
*P uo_out[2] O
*I *1742:A I *D sky130_fd_sc_hd__xnor2_1
*I *1743:C I *D sky130_fd_sc_hd__and4_1
*I *1744:A3 I *D sky130_fd_sc_hd__a31o_1
*I *1752:Q O *D sky130_fd_sc_hd__dfrtp_4
*CAP
1 uo_out[2] 0.000439179
2 *1742:A 0
3 *1743:C 2.91264e-05
4 *1744:A3 0
5 *1752:Q 0.000797345
6 *40:28 0.000655329
7 *40:24 0.000986801
8 *40:12 0.00153887
9 uo_out[2] uo_out[3] 0.00015749
10 *40:12 *1751:D 0.000322084
11 *40:12 *1752:D 0.000390841
12 *40:12 *61:12 0.000123673
13 *40:24 *1741:B 9.24859e-05
14 *40:24 *1751:D 0.000114311
15 *40:28 *1743:D 9.94037e-05
16 uo_out[0] uo_out[2] 2.85951e-05
17 uo_out[1] uo_out[2] 0.000404052
18 uo_out[1] *40:28 3.14048e-05
19 *1740:B *40:24 0.000123068
20 *1744:A1 *1743:C 0
21 *38:50 uo_out[2] 9.54798e-06
22 *39:14 *40:24 6.68349e-05
23 *39:16 *40:24 9.76435e-06
24 *39:16 *40:28 2.94004e-05
*RES
1 *1752:Q *40:12 36.3893 
2 *40:12 *40:24 12.4286 
3 *40:24 *40:28 3.83929 
4 *40:28 uo_out[2] 14.0769 
5 *40:28 *1744:A3 9.3 
6 *40:24 *1743:C 10.0321 
7 *40:12 *1742:A 9.3 
*END

*D_NET *41 0.003647
*CONN
*P uo_out[3] O
*I *1743:D I *D sky130_fd_sc_hd__and4_1
*I *1744:B1 I *D sky130_fd_sc_hd__a31o_1
*I *1753:Q O *D sky130_fd_sc_hd__dfrtp_4
*CAP
1 uo_out[3] 0.000772556
2 *1743:D 3.30981e-05
3 *1744:B1 0
4 *1753:Q 0.000361978
5 *41:28 4.82593e-05
6 *41:12 0.00114969
7 uo_out[3] uo_out[4] 0.000124592
8 *41:12 *1750:D 0
9 *41:12 *54:12 3.57163e-05
10 *41:12 *61:46 5.49544e-05
11 uo_out[0] uo_out[3] 9.69276e-05
12 uo_out[1] uo_out[3] 0.000160141
13 uo_out[2] uo_out[3] 0.00015749
14 *1740:B *41:12 0
15 *38:10 *41:12 0.000201127
16 *38:50 *41:12 0.000158707
17 *38:50 *41:28 5.58875e-06
18 *39:16 *1743:D 0.000186765
19 *40:28 *1743:D 9.94037e-05
*RES
1 *1753:Q *41:12 21.5232 
2 *41:12 uo_out[3] 9.05407 
3 *41:12 *41:28 4.77679 
4 *41:28 *1744:B1 9.3 
5 *41:28 *1743:D 11.0679 
*END

*D_NET *42 0.00356437
*CONN
*P uo_out[4] O
*I *1747:A I *D sky130_fd_sc_hd__or2_1
*I *1746:A I *D sky130_fd_sc_hd__nand2_1
*I *1754:Q O *D sky130_fd_sc_hd__dfrtp_4
*CAP
1 uo_out[4] 0.000454331
2 *1747:A 0
3 *1746:A 0.000226101
4 *1754:Q 0.000450192
5 *42:20 0.000483686
6 *42:16 0.00116211
7 uo_out[4] uo_out[5] 9.89123e-05
8 *1746:A *1746:B 0.00016682
9 *1746:A *1748:A 1.32552e-05
10 *1746:A *1748:B 0.000144773
11 *42:16 *1754:CLK 3.75236e-05
12 *42:16 *1754:RESET_B 0.000145771
13 *42:16 *59:16 0
14 *42:20 *1746:B 5.62995e-05
15 uo_out[3] uo_out[4] 0.000124592
*RES
1 *1754:Q *42:16 22.675 
2 *42:16 *42:20 8.73214 
3 *42:20 *1746:A 13.9607 
4 *42:20 *1747:A 9.3 
5 *42:16 uo_out[4] 8.66972 
*END

*D_NET *43 0.00170064
*CONN
*P uo_out[5] O
*I *1749:A I *D sky130_fd_sc_hd__xnor2_1
*I *1755:Q O *D sky130_fd_sc_hd__dfrtp_4
*CAP
1 uo_out[5] 0.000155985
2 *1749:A 0.000433224
3 *1755:Q 0
4 *43:6 0.000589208
5 uo_out[5] uo_out[6] 7.88136e-05
6 *1749:A *1755:D 0.000193873
7 *1749:A *54:20 0.000150624
8 uo_out[4] uo_out[5] 9.89123e-05
*RES
1 *1755:Q *43:6 13.8 
2 *43:6 *1749:A 22.6393 
3 *43:6 uo_out[5] 7.71092 
*END

*D_NET *44 0.00041663
*CONN
*P uo_out[6] O
*I *1768:LO O *D sky130_fd_sc_hd__conb_1
*CAP
1 uo_out[6] 0.000129501
2 *1768:LO 0.000129501
3 uo_out[6] uo_out[7] 7.88136e-05
4 uo_out[5] uo_out[6] 7.88136e-05
*RES
1 *1768:LO uo_out[6] 21.4044 
*END

*D_NET *45 0.00041663
*CONN
*P uo_out[7] O
*I *1769:LO O *D sky130_fd_sc_hd__conb_1
*CAP
1 uo_out[7] 0.000129501
2 *1769:LO 0.000129501
3 uio_out[0] uo_out[7] 7.88136e-05
4 uo_out[6] uo_out[7] 7.88136e-05
*RES
1 *1769:LO uo_out[7] 21.4044 
*END

*D_NET *46 0.000619086
*CONN
*I *1750:D I *D sky130_fd_sc_hd__dfrtp_4
*I *1738:Y O *D sky130_fd_sc_hd__inv_2
*CAP
1 *1750:D 0.000247563
2 *1738:Y 0.000247563
3 *1750:D *1750:RESET_B 0.00012396
4 *41:12 *1750:D 0
*RES
1 *1738:Y *1750:D 32.2429 
*END

*D_NET *47 0.00172892
*CONN
*I *1751:D I *D sky130_fd_sc_hd__dfrtp_4
*I *1741:X O *D sky130_fd_sc_hd__and2_1
*CAP
1 *1751:D 0.000646263
2 *1741:X 0.000646263
3 *1751:D *1752:D 0
4 *1751:D *60:23 0
5 *1751:D *61:40 0
6 *40:12 *1751:D 0.000322084
7 *40:24 *1751:D 0.000114311
*RES
1 *1741:X *1751:D 39.9214 
*END

*D_NET *48 0.00150131
*CONN
*I *1752:D I *D sky130_fd_sc_hd__dfrtp_4
*I *1742:Y O *D sky130_fd_sc_hd__xnor2_1
*CAP
1 *1752:D 0.000555235
2 *1742:Y 0.000555235
3 *1751:D *1752:D 0
4 *40:12 *1752:D 0.000390841
*RES
1 *1742:Y *1752:D 35.6357 
*END

*D_NET *49 0.000772165
*CONN
*I *1753:D I *D sky130_fd_sc_hd__dfrtp_4
*I *1745:X O *D sky130_fd_sc_hd__and2b_1
*CAP
1 *1753:D 0.000238514
2 *1745:X 0.000238514
3 *1753:D *1754:RESET_B 3.34366e-05
4 *1753:D *1755:RESET_B 0.0002617
5 *1753:D *59:16 0
*RES
1 *1745:X *1753:D 32.725 
*END

*D_NET *50 0.000646918
*CONN
*I *1754:D I *D sky130_fd_sc_hd__dfrtp_4
*I *1748:X O *D sky130_fd_sc_hd__and2_1
*CAP
1 *1754:D 0.000294653
2 *1748:X 0.000294653
3 *1754:D *1754:CLK 5.76121e-05
*RES
1 *1748:X *1754:D 33.1536 
*END

*D_NET *51 0.00315177
*CONN
*I *1755:D I *D sky130_fd_sc_hd__dfrtp_4
*I *1749:Y O *D sky130_fd_sc_hd__xnor2_1
*CAP
1 *1755:D 0.000890634
2 *1749:Y 0.000890634
3 *1755:D *1755:CLK 9.96264e-05
4 *1755:D *1755:RESET_B 9.80405e-05
5 *1755:D *54:12 0.000314139
6 *1755:D *54:20 0.000664822
7 *1749:A *1755:D 0.000193873
*RES
1 *1749:Y *1755:D 41.3857 
*END

*D_NET *52 0.00187005
*CONN
*I *1742:B I *D sky130_fd_sc_hd__xnor2_1
*I *1741:A I *D sky130_fd_sc_hd__and2_1
*I *1739:Y O *D sky130_fd_sc_hd__nand2_1
*CAP
1 *1742:B 0.000468796
2 *1741:A 0.000126945
3 *1739:Y 0.000121122
4 *52:6 0.000716863
5 *1742:B *1757:A 4.18895e-05
6 *1742:B *61:40 8.71761e-05
7 *52:6 *1757:A 0.000186669
8 *39:6 *1742:B 0.000120587
9 *39:12 *1741:A 0
*RES
1 *1739:Y *52:6 11.0679 
2 *52:6 *1741:A 19.9429 
3 *52:6 *1742:B 24.8893 
*END

*D_NET *53 0.000254956
*CONN
*I *1741:B I *D sky130_fd_sc_hd__and2_1
*I *1740:X O *D sky130_fd_sc_hd__or2_1
*CAP
1 *1741:B 8.1235e-05
2 *1740:X 8.1235e-05
3 *40:24 *1741:B 9.24859e-05
*RES
1 *1740:X *1741:B 20.3857 
*END

*D_NET *54 0.00411161
*CONN
*I *1745:A_N I *D sky130_fd_sc_hd__and2b_1
*I *1746:B I *D sky130_fd_sc_hd__nand2_1
*I *1747:B I *D sky130_fd_sc_hd__or2_1
*I *1743:X O *D sky130_fd_sc_hd__and4_1
*CAP
1 *1745:A_N 0
2 *1746:B 0.000197517
3 *1747:B 0
4 *1743:X 0.000595905
5 *54:20 0.000585421
6 *54:12 0.000983809
7 *1746:B *1748:A 3.31648e-05
8 *1746:B *1748:B 0.000144773
9 *1746:A *1746:B 0.00016682
10 *1749:A *54:20 0.000150624
11 *1755:D *54:12 0.000314139
12 *1755:D *54:20 0.000664822
13 *38:14 *54:12 0.000182598
14 *41:12 *54:12 3.57163e-05
15 *42:20 *1746:B 5.62995e-05
*RES
1 *1743:X *54:12 29.2107 
2 *54:12 *54:20 18.4464 
3 *54:20 *1747:B 9.3 
4 *54:20 *1746:B 14.5143 
5 *54:12 *1745:A_N 9.3 
*END

*D_NET *55 0.00133823
*CONN
*I *1745:B I *D sky130_fd_sc_hd__and2b_1
*I *1744:X O *D sky130_fd_sc_hd__a31o_1
*CAP
1 *1745:B 0.000526457
2 *1744:X 0.000526457
3 *1745:B *1755:CLK 9.90431e-05
4 *1745:B *1755:RESET_B 0.000186273
*RES
1 *1744:X *1745:B 34.9036 
*END

*D_NET *56 0.000456317
*CONN
*I *1748:A I *D sky130_fd_sc_hd__and2_1
*I *1749:B I *D sky130_fd_sc_hd__xnor2_1
*I *1746:Y O *D sky130_fd_sc_hd__nand2_1
*CAP
1 *1748:A 0.000103961
2 *1749:B 0.000100987
3 *1746:Y 0
4 *56:4 0.000204949
5 *1746:A *1748:A 1.32552e-05
6 *1746:B *1748:A 3.31648e-05
*RES
1 *1746:Y *56:4 9.3 
2 *56:4 *1749:B 19.9429 
3 *56:4 *1748:A 10.9786 
*END

*D_NET *57 0.00032144
*CONN
*I *1748:B I *D sky130_fd_sc_hd__and2_1
*I *1747:X O *D sky130_fd_sc_hd__or2_1
*CAP
1 *1748:B 1.5947e-05
2 *1747:X 1.5947e-05
3 *1746:A *1748:B 0.000144773
4 *1746:B *1748:B 0.000144773
*RES
1 *1747:X *1748:B 19.9571 
*END

*D_NET *58 0.00308761
*CONN
*I *1757:A I *D sky130_fd_sc_hd__clkbuf_16
*I *1758:A I *D sky130_fd_sc_hd__clkbuf_16
*I *1756:X O *D sky130_fd_sc_hd__clkbuf_16
*CAP
1 *1757:A 0.000352561
2 *1758:A 0.000658384
3 *1756:X 0
4 *58:6 0.00101094
5 *1757:A *61:40 0.000190162
6 *1758:A *61:40 3.34366e-05
7 *1758:A *61:46 0.000101545
8 *1739:B *1757:A 0.000228514
9 *1742:B *1757:A 4.18895e-05
10 *38:14 *1757:A 5.49489e-05
11 *39:6 *1757:A 0.000228558
12 *52:6 *1757:A 0.000186669
*RES
1 *1756:X *58:6 13.8 
2 *58:6 *1758:A 24.4964 
3 *58:6 *1757:A 22.425 
*END

*D_NET *59 0.0037927
*CONN
*I *1755:CLK I *D sky130_fd_sc_hd__dfrtp_4
*I *1753:CLK I *D sky130_fd_sc_hd__dfrtp_4
*I *1754:CLK I *D sky130_fd_sc_hd__dfrtp_4
*I *1757:X O *D sky130_fd_sc_hd__clkbuf_16
*CAP
1 *1755:CLK 0.000167444
2 *1753:CLK 0
3 *1754:CLK 0.000848591
4 *1757:X 0
5 *59:16 0.00146403
6 *59:6 0.000782885
7 *1754:CLK *1754:RESET_B 0.000136182
8 *1755:CLK *1755:RESET_B 3.22738e-05
9 *59:16 *1754:RESET_B 0
10 *59:16 *1755:RESET_B 6.74911e-05
11 *1745:B *1755:CLK 9.90431e-05
12 *1753:D *59:16 0
13 *1754:D *1754:CLK 5.76121e-05
14 *1755:D *1755:CLK 9.96264e-05
15 *42:16 *1754:CLK 3.75236e-05
16 *42:16 *59:16 0
*RES
1 *1757:X *59:6 13.8 
2 *59:6 *59:16 17.9286 
3 *59:16 *1754:CLK 25.6214 
4 *59:16 *1753:CLK 13.8 
5 *59:6 *1755:CLK 17.425 
*END

*D_NET *60 0.00281056
*CONN
*I *1752:CLK I *D sky130_fd_sc_hd__dfrtp_4
*I *1751:CLK I *D sky130_fd_sc_hd__dfrtp_4
*I *1750:CLK I *D sky130_fd_sc_hd__dfrtp_4
*I *1758:X O *D sky130_fd_sc_hd__clkbuf_16
*CAP
1 *1752:CLK 0
2 *1751:CLK 2.91823e-05
3 *1750:CLK 0.000648525
4 *1758:X 0.000381332
5 *60:23 0.000159894
6 *60:10 0.00116057
7 *1750:CLK *1750:RESET_B 6.05161e-06
8 *1751:CLK *1751:RESET_B 1.92789e-05
9 *1751:D *60:23 0
10 *3:17 *1750:CLK 0.000405727
*RES
1 *1758:X *60:10 18.7464 
2 *60:10 *1750:CLK 25.8357 
3 *60:10 *60:23 6.75 
4 *60:23 *1751:CLK 9.83571 
5 *60:23 *1752:CLK 9.3 
*END

*D_NET *61 0.0121259
*CONN
*I *1750:RESET_B I *D sky130_fd_sc_hd__dfrtp_4
*I *1753:RESET_B I *D sky130_fd_sc_hd__dfrtp_4
*I *1755:RESET_B I *D sky130_fd_sc_hd__dfrtp_4
*I *1754:RESET_B I *D sky130_fd_sc_hd__dfrtp_4
*I *1751:RESET_B I *D sky130_fd_sc_hd__dfrtp_4
*I *1752:RESET_B I *D sky130_fd_sc_hd__dfrtp_4
*I *1759:X O *D sky130_fd_sc_hd__buf_2
*CAP
1 *1750:RESET_B 0.000191964
2 *1753:RESET_B 3.77558e-05
3 *1755:RESET_B 0.00030688
4 *1754:RESET_B 0.000398438
5 *1751:RESET_B 0.00147772
6 *1752:RESET_B 1.59158e-05
7 *1759:X 0.00145144
8 *61:50 0.00105895
9 *61:46 0.00123423
10 *61:40 0.00161249
11 *61:12 0.00236739
12 *1742:B *61:40 8.71761e-05
13 *1745:B *1755:RESET_B 0.000186273
14 *1750:CLK *1750:RESET_B 6.05161e-06
15 *1750:D *1750:RESET_B 0.00012396
16 *1751:CLK *1751:RESET_B 1.92789e-05
17 *1751:D *61:40 0
18 *1753:D *1754:RESET_B 3.34366e-05
19 *1753:D *1755:RESET_B 0.0002617
20 *1754:CLK *1754:RESET_B 0.000136182
21 *1755:CLK *1755:RESET_B 3.22738e-05
22 *1755:D *1755:RESET_B 9.80405e-05
23 *1757:A *61:40 0.000190162
24 *1758:A *61:40 3.34366e-05
25 *1758:A *61:46 0.000101545
26 *39:6 *61:40 0.000271345
27 *40:12 *61:12 0.000123673
28 *41:12 *61:46 5.49544e-05
29 *42:16 *1754:RESET_B 0.000145771
30 *59:16 *1754:RESET_B 0
31 *59:16 *1755:RESET_B 6.74911e-05
*RES
1 *1759:X *61:12 35.3714 
2 *61:12 *1752:RESET_B 0.473214 
3 *61:12 *1751:RESET_B 11.7232 
4 *1751:RESET_B *61:40 25.4286 
5 *61:40 *61:46 15 
6 *61:46 *61:50 8.73214 
7 *61:50 *1754:RESET_B 12.4375 
8 *61:50 *1755:RESET_B 12.4018 
9 *61:46 *1753:RESET_B 0.901786 
10 *61:40 *1750:RESET_B 7.84821 
*END
